Function: get_partitions took 9.989738464355469e-05 seconds
Function: map_flows_partitions took 2.2411346435546875e-05 seconds
Building model with:
21 devices, 60 partitions and 20 flows
Using license file /home/anup/gurobi.lic
Academic license - for non-commercial use only
Function: MIP.add_frac_mem_var took 0.0013265609741210938 seconds
Function: MIP.add_coverage_constraints took 0.0024251937866210938 seconds
Function: MIP.add_accuracy_constraints took 0.003946065902709961 seconds
Function: MIP.add_capacity_constraints took 0.0025708675384521484 seconds
Changed value of parameter TimeLimit to 120.0
   Prev: inf  Min: 0.0  Max: inf  Default: inf
--------------------------------------------------
Starting model update
Model update took: 0.00028634071350097656 s
--------------------------------------------------
Starting model optimize
Gurobi Optimizer version 9.0.0 build v9.0.0rc2 (linux64)
Optimize a model with 284 rows, 408 columns and 986 nonzeros
Model fingerprint: 0xcf9395e8
Model has 4 general constraints
Variable types: 228 continuous, 180 integer (180 binary)
Coefficient statistics:
  Matrix range     [1e+00, 2e+00]
  Objective range  [1e+00, 1e+00]
  Bounds range     [1e+00, 3e+04]
  RHS range        [1e+00, 1e+00]

---------------------------------------------------------------------------
Multi-objectives: starting optimization with 8 objectives ... 
---------------------------------------------------------------------------

Multi-objectives: applying initial presolve ...
---------------------------------------------------------------------------

Presolve removed 162 rows and 126 columns
Presolve time: 0.00s
Presolved: 122 rows and 282 columns
---------------------------------------------------------------------------

Multi-objectives: optimize objective 1 (tot_rows_CPU) ...
---------------------------------------------------------------------------

Presolve removed 80 rows and 180 columns
Presolve time: 0.00s
Presolved: 42 rows, 102 columns, 160 nonzeros
Presolved model has 40 SOS constraint(s)
Variable types: 42 continuous, 60 integer (40 binary)

Root relaxation: objective 0.000000e+00, 2 iterations, 0.00 seconds

    Nodes    |    Current Node    |     Objective Bounds      |     Work
 Expl Unexpl |  Obj  Depth IntInf | Incumbent    BestBd   Gap | It/Node Time

*    0     0               0       0.0000000    0.00000  0.00%     -    0s

Explored 0 nodes (2 simplex iterations) in 0.00 seconds
Thread count was 8 (of 8 available processors)

Solution count 1: 0 

Optimal solution found (tolerance 1.00e-04)
Best objective 0.000000000000e+00, best bound 0.000000000000e+00, gap 0.0000%
---------------------------------------------------------------------------

Multi-objectives: optimize objective 2 (CPU_rows_load) ...
---------------------------------------------------------------------------


Loaded user MIP start with objective 0


Explored 0 nodes (0 simplex iterations) in 0.00 seconds
Thread count was 1 (of 8 available processors)

Solution count 1: 0 

Optimal solution found (tolerance 1.00e-04)
Best objective 0.000000000000e+00, best bound 0.000000000000e+00, gap 0.0000%
---------------------------------------------------------------------------

Multi-objectives: optimize objective 3 (tot_rows_P4) ...
---------------------------------------------------------------------------


Loaded user MIP start with objective 60

Presolve removed 104 rows and 242 columns
Presolve time: 0.00s
Presolved: 20 rows, 40 columns, 58 nonzeros
Presolved model has 20 SOS constraint(s)
Variable types: 20 continuous, 20 integer (20 binary)

Explored 0 nodes (0 simplex iterations) in 0.01 seconds
Thread count was 8 (of 8 available processors)

Solution count 1: 60 

Optimal solution found (tolerance 1.00e-04)
Best objective 6.000000000000e+01, best bound 6.000000000000e+01, gap 0.0000%
---------------------------------------------------------------------------

Multi-objectives: optimize objective 4 (P4_rows_load) ...
---------------------------------------------------------------------------


Loaded user MIP start with objective 60

Presolve removed 105 rows and 242 columns
Presolve time: 0.00s
Presolved: 20 rows, 40 columns, 58 nonzeros
Presolved model has 20 SOS constraint(s)
Variable types: 20 continuous, 20 integer (20 binary)

Explored 0 nodes (0 simplex iterations) in 0.01 seconds
Thread count was 8 (of 8 available processors)

Solution count 1: 60 

Optimal solution found (tolerance 1.00e-04)
Best objective 6.000000000000e+01, best bound 6.000000000000e+01, gap 0.0000%
---------------------------------------------------------------------------

Multi-objectives: optimize objective 5 (tot_mem_CPU) ...
---------------------------------------------------------------------------


Loaded user MIP start with objective 0


Explored 0 nodes (0 simplex iterations) in 0.01 seconds
Thread count was 1 (of 8 available processors)

Solution count 1: 0 

Optimal solution found (tolerance 1.00e-04)
Best objective 0.000000000000e+00, best bound 0.000000000000e+00, gap 0.0000%
---------------------------------------------------------------------------

Multi-objectives: optimize objective 6 (CPU_load_mem) ...
---------------------------------------------------------------------------


Loaded user MIP start with objective 0


Explored 0 nodes (0 simplex iterations) in 0.01 seconds
Thread count was 1 (of 8 available processors)

Solution count 1: 0 

Optimal solution found (tolerance 1.00e-04)
Best objective 0.000000000000e+00, best bound 0.000000000000e+00, gap 0.0000%
---------------------------------------------------------------------------

Multi-objectives: optimize objective 7 (tot_mem_P4) ...
---------------------------------------------------------------------------


Loaded user MIP start with objective 101.953

Presolve removed 128 rows and 282 columns
Presolve time: 0.00s
Presolve: All rows and columns removed

Explored 0 nodes (0 simplex iterations) in 0.01 seconds
Thread count was 1 (of 8 available processors)

Solution count 1: 101.953 

Optimal solution found (tolerance 1.00e-04)
Best objective 1.019531250000e+02, best bound 1.019531250000e+02, gap 0.0000%
---------------------------------------------------------------------------

Multi-objectives: optimize objective 8 (P4_load_mem) ...
---------------------------------------------------------------------------


Loaded user MIP start with objective 101.953

Presolve removed 129 rows and 282 columns
Presolve time: 0.00s
Presolve: All rows and columns removed

Explored 0 nodes (0 simplex iterations) in 0.01 seconds
Thread count was 1 (of 8 available processors)

Solution count 1: 101.953 

Optimal solution found (tolerance 1.00e-04)
Best objective 1.019531250000e+02, best bound 1.019531250000e+02, gap 0.0000%

---------------------------------------------------------------------------
Multi-objectives: solved in 0.01 seconds, solution count 1

Model optimize took: 0.0113067626953125 seconds
--------------------------------------------------

Solution quality statistics for model UnivmonGreedyRows :
  Maximum violation:
    Bound       : 0.00000000e+00
    Constraint  : 0.00000000e+00
    Integrality : 0.00000000e+00

Sketch (0) (cm: eps0: 0.00625, del0: 0.05, min_mem: 1.69921875)
Par: 1, Rows: 1
(1.000,20)    (0.000,1)    (-0.000,0)    
Total frac: 1.000
Par: 2, Rows: 1
(-0.000,1)    (0.000,0)    (1.000,20)    
Total frac: 1.000
Par: 3, Rows: 1
(0.000,0)    (0.000,1)    (1.000,20)    
Total frac: 1.000

Sketch (1) (cm: eps0: 0.00625, del0: 0.05, min_mem: 1.69921875)
Par: 1, Rows: 1
(1.000,20)    (0.000,1)    (0.000,2)    
Total frac: 1.000
Par: 2, Rows: 1
(1.000,20)    (0.000,1)    (-0.000,2)    
Total frac: 1.000
Par: 3, Rows: 1
(0.000,2)    (0.000,1)    (1.000,20)    
Total frac: 1.000

Sketch (2) (cm: eps0: 0.00625, del0: 0.05, min_mem: 1.69921875)
Par: 1, Rows: 1
(0.000,2)    (-0.000,3)    (1.000,20)    
Total frac: 1.000
Par: 2, Rows: 1
(1.000,20)    (0.000,3)    (0.000,2)    
Total frac: 1.000
Par: 3, Rows: 1
(0.000,2)    (1.000,20)    (0.000,3)    
Total frac: 1.000

Sketch (3) (cm: eps0: 0.00625, del0: 0.05, min_mem: 1.69921875)
Par: 1, Rows: 1
(1.000,20)    (0.000,3)    (0.000,4)    
Total frac: 1.000
Par: 2, Rows: 1
(0.000,4)    (1.000,20)    (0.000,3)    
Total frac: 1.000
Par: 3, Rows: 1
(0.000,3)    (-0.000,4)    (1.000,20)    
Total frac: 1.000

Sketch (4) (cm: eps0: 0.00625, del0: 0.05, min_mem: 1.69921875)
Par: 1, Rows: 1
(0.000,4)    (1.000,20)    (0.000,5)    
Total frac: 1.000
Par: 2, Rows: 1
(0.000,5)    (0.000,4)    (1.000,20)    
Total frac: 1.000
Par: 3, Rows: 1
(1.000,20)    (-0.000,5)    (0.000,4)    
Total frac: 1.000

Sketch (5) (cm: eps0: 0.00625, del0: 0.05, min_mem: 1.69921875)
Par: 1, Rows: 1
(1.000,20)    (0.000,6)    (0.000,5)    
Total frac: 1.000
Par: 2, Rows: 1
(0.000,6)    (1.000,20)    (0.000,5)    
Total frac: 1.000
Par: 3, Rows: 1
(0.000,5)    (0.000,6)    (1.000,20)    
Total frac: 1.000

Sketch (6) (cm: eps0: 0.00625, del0: 0.05, min_mem: 1.69921875)
Par: 1, Rows: 1
(-0.000,7)    (0.000,6)    (1.000,20)    
Total frac: 1.000
Par: 2, Rows: 1
(0.000,7)    (1.000,20)    (0.000,6)    
Total frac: 1.000
Par: 3, Rows: 1
(1.000,20)    (-0.000,6)    (0.000,7)    
Total frac: 1.000

Sketch (7) (cm: eps0: 0.00625, del0: 0.05, min_mem: 1.69921875)
Par: 1, Rows: 1
(0.000,8)    (0.000,7)    (1.000,20)    
Total frac: 1.000
Par: 2, Rows: 1
(0.000,7)    (0.000,8)    (1.000,20)    
Total frac: 1.000
Par: 3, Rows: 1
(0.000,8)    (0.000,7)    (1.000,20)    
Total frac: 1.000

Sketch (8) (cm: eps0: 0.00625, del0: 0.05, min_mem: 1.69921875)
Par: 1, Rows: 1
(-0.000,8)    (0.000,9)    (1.000,20)    
Total frac: 1.000
Par: 2, Rows: 1
(1.000,20)    (0.000,9)    (0.000,8)    
Total frac: 1.000
Par: 3, Rows: 1
(0.000,9)    (1.000,20)    (0.000,8)    
Total frac: 1.000

Sketch (9) (cm: eps0: 0.00625, del0: 0.05, min_mem: 1.69921875)
Par: 1, Rows: 1
(1.000,20)    (-0.000,9)    (0.000,10)    
Total frac: 1.000
Par: 2, Rows: 1
(1.000,20)    (0.000,9)    (-0.000,10)    
Total frac: 1.000
Par: 3, Rows: 1
(0.000,10)    (0.000,9)    (1.000,20)    
Total frac: 1.000

Sketch (10) (cm: eps0: 0.00625, del0: 0.05, min_mem: 1.69921875)
Par: 1, Rows: 1
(1.000,20)    (0.000,10)    (0.000,11)    
Total frac: 1.000
Par: 2, Rows: 1
(0.000,11)    (1.000,20)    (0.000,10)    
Total frac: 1.000
Par: 3, Rows: 1
(1.000,20)    (0.000,10)    (0.000,11)    
Total frac: 1.000

Sketch (11) (cm: eps0: 0.00625, del0: 0.05, min_mem: 1.69921875)
Par: 1, Rows: 1
(1.000,20)    (-0.000,11)    (0.000,12)    
Total frac: 1.000
Par: 2, Rows: 1
(0.000,12)    (0.000,11)    (1.000,20)    
Total frac: 1.000
Par: 3, Rows: 1
(1.000,20)    (0.000,11)    (-0.000,12)    
Total frac: 1.000

Sketch (12) (cm: eps0: 0.00625, del0: 0.05, min_mem: 1.69921875)
Par: 1, Rows: 1
(0.000,12)    (0.000,13)    (1.000,20)    
Total frac: 1.000
Par: 2, Rows: 1
(1.000,20)    (-0.000,13)    (0.000,12)    
Total frac: 1.000
Par: 3, Rows: 1
(0.000,13)    (1.000,20)    (0.000,12)    
Total frac: 1.000

Sketch (13) (cm: eps0: 0.00625, del0: 0.05, min_mem: 1.69921875)
Par: 1, Rows: 1
(1.000,20)    (0.000,14)    (0.000,13)    
Total frac: 1.000
Par: 2, Rows: 1
(0.000,14)    (0.000,13)    (1.000,20)    
Total frac: 1.000
Par: 3, Rows: 1
(0.000,13)    (0.000,14)    (1.000,20)    
Total frac: 1.000

Sketch (14) (cm: eps0: 0.00625, del0: 0.05, min_mem: 1.69921875)
Par: 1, Rows: 1
(1.000,20)    (-0.000,15)    (0.000,14)    
Total frac: 1.000
Par: 2, Rows: 1
(0.000,14)    (0.000,15)    (1.000,20)    
Total frac: 1.000
Par: 3, Rows: 1
(1.000,20)    (-0.000,14)    (0.000,15)    
Total frac: 1.000

Sketch (15) (cm: eps0: 0.00625, del0: 0.05, min_mem: 1.69921875)
Par: 1, Rows: 1
(0.000,16)    (0.000,15)    (1.000,20)    
Total frac: 1.000
Par: 2, Rows: 1
(0.000,15)    (0.000,16)    (1.000,20)    
Total frac: 1.000
Par: 3, Rows: 1
(-0.000,16)    (0.000,15)    (1.000,20)    
Total frac: 1.000

Sketch (16) (cm: eps0: 0.00625, del0: 0.05, min_mem: 1.69921875)
Par: 1, Rows: 1
(1.000,20)    (0.000,16)    (0.000,17)    
Total frac: 1.000
Par: 2, Rows: 1
(1.000,20)    (0.000,17)    (0.000,16)    
Total frac: 1.000
Par: 3, Rows: 1
(0.000,16)    (0.000,17)    (1.000,20)    
Total frac: 1.000

Sketch (17) (cm: eps0: 0.00625, del0: 0.05, min_mem: 1.69921875)
Par: 1, Rows: 1
(0.000,17)    (0.000,18)    (1.000,20)    
Total frac: 1.000
Par: 2, Rows: 1
(-0.000,17)    (0.000,18)    (1.000,20)    
Total frac: 1.000
Par: 3, Rows: 1
(1.000,20)    (0.000,18)    (0.000,17)    
Total frac: 1.000

Sketch (18) (cm: eps0: 0.00625, del0: 0.05, min_mem: 1.69921875)
Par: 1, Rows: 1
(0.000,19)    (1.000,20)    (0.000,18)    
Total frac: 1.000
Par: 2, Rows: 1
(-0.000,18)    (0.000,19)    (1.000,20)    
Total frac: 1.000
Par: 3, Rows: 1
(0.000,18)    (1.000,20)    (0.000,19)    
Total frac: 1.000

Sketch (19) (cm: eps0: 0.00625, del0: 0.05, min_mem: 1.69921875)
Par: 1, Rows: 1
(0.000,19)    (1.000,20)    (0.000,0)    
Total frac: 1.000
Par: 2, Rows: 1
(1.000,20)    (0.000,0)    (0.000,19)    
Total frac: 1.000
Par: 3, Rows: 1
(-0.000,19)    (1.000,20)    (0.000,0)    
Total frac: 1.000

Device (0) CPU_0:
Rows total: 0.0
Mem total: 0.0

Device (1) CPU_1:
Rows total: 0.0
Mem total: 0.0

Device (2) CPU_2:
Rows total: 0.0
Mem total: 0.0

Device (3) CPU_3:
Rows total: 0.0
Mem total: 0.0

Device (4) CPU_4:
Rows total: 0.0
Mem total: 0.0

Device (5) CPU_5:
Rows total: 0.0
Mem total: 0.0

Device (6) CPU_6:
Rows total: 0.0
Mem total: 0.0

Device (7) CPU_7:
Rows total: 0.0
Mem total: 0.0

Device (8) CPU_8:
Rows total: 0.0
Mem total: 0.0

Device (9) CPU_9:
Rows total: 0.0
Mem total: 0.0

Device (10) CPU_10:
Rows total: 0.0
Mem total: 0.0

Device (11) CPU_11:
Rows total: 0.0
Mem total: 0.0

Device (12) CPU_12:
Rows total: 0.0
Mem total: 0.0

Device (13) CPU_13:
Rows total: 0.0
Mem total: 0.0

Device (14) CPU_14:
Rows total: 0.0
Mem total: 0.0

Device (15) CPU_15:
Rows total: 0.0
Mem total: 0.0

Device (16) CPU_16:
Rows total: 0.0
Mem total: 0.0

Device (17) CPU_17:
Rows total: 0.0
Mem total: 0.0

Device (18) CPU_18:
Rows total: 0.0
Mem total: 0.0

Device (19) CPU_19:
Rows total: 0.0
Mem total: 0.0

Device (20) P4_1:
Rows total: 60.0
Mem total: 101.953125
--------------------------------------------------
Infeasible placement
Function: MIP.solve took 0.042209625244140625 seconds
Function: solve took 0.04287886619567871 seconds
